(set-logic QF_BV)

(declare-const __ESBMC_ptr_obj_start_0 (_ BitVec 64))

(declare-const __ESBMC_ptr_obj_end_0 (_ BitVec 64))

(declare-const __ESBMC_ptr_obj_start_1 (_ BitVec 64))

(declare-const __ESBMC_ptr_obj_end_1 (_ BitVec 64))

(declare-const |smt_conv::__ESBMC_ptr_addr_range_0..start0| (_ BitVec 64))

(declare-const |smt_conv::__ESBMC_ptr_addr_range_0..end0| (_ BitVec 64))

(declare-const |smt_conv::__ESBMC_ptr_addr_range_1..start0| (_ BitVec 64))

(declare-const |smt_conv::__ESBMC_ptr_addr_range_1..end0| (_ BitVec 64))

(declare-const |smt_conv::smt_conv::collate_array_vals::3..start0| (_ BitVec 64))

(declare-const |smt_conv::smt_conv::collate_array_vals::3..end0| (_ BitVec 64))

(declare-const |smt_conv::smt_conv::collate_array_vals::4..start0| (_ BitVec 64))

(declare-const |smt_conv::smt_conv::collate_array_vals::4..end0| (_ BitVec 64))

(declare-const |smt_conv::smt_conv::collate_array_vals::7..start0| (_ BitVec 64))

(declare-const |smt_conv::smt_conv::collate_array_vals::7..end0| (_ BitVec 64))

(declare-const |c:@F@main::$tmp::return_value$___VERIFIER_nondet_int$1?1!0&0#1| (_ BitVec 32))

(declare-const |nondet$symex::nondet558| (_ BitVec 32))

(declare-const |c:stroeder1-alloca-1.i@22280@F@main@array_size?1!0&0#1| (_ BitVec 32))

(declare-const |goto_symex::guard?0!0&0#1| (_ BitVec 1))

(declare-const |c:stroeder1-alloca-1.i@22280@F@main@array_size?1!0&0#3| (_ BitVec 32))

(declare-const |goto_symex::guard?0!0&0#2| (_ BitVec 1))

(declare-const |goto_symex::guard?0!0&0#3| (_ BitVec 1))

(declare-const |goto_symex::guard?0!0&0#4| (_ BitVec 1))

(declare-const |goto_symex::guard?0!0&0#5| (_ BitVec 1))

(declare-const |goto_symex::guard?0!0&0#6| (_ BitVec 1))

(declare-const |goto_symex::guard?0!0&0#7| (_ BitVec 1))

(declare-const |goto_symex::guard?0!0&0#8| (_ BitVec 1))

(declare-const |goto_symex::guard?0!0&0#9| (_ BitVec 1))

(declare-const |goto_symex::guard?0!0&0#10| (_ BitVec 1))

(declare-const |goto_symex::guard?0!0&0#11| (_ BitVec 1))

(declare-const |goto_symex::guard?0!0&0#12| (_ BitVec 1))

(declare-const |goto_symex::guard?0!0&0#13| (_ BitVec 1))

(declare-const |goto_symex::guard?0!0&0#14| (_ BitVec 1))

(declare-const |goto_symex::guard?0!0&0#15| (_ BitVec 1))

(declare-const |goto_symex::guard?0!0&0#16| (_ BitVec 1))

(declare-const |goto_symex::guard?0!0&0#17| (_ BitVec 1))

(declare-const |goto_symex::guard?0!0&0#18| (_ BitVec 1))

(declare-const |goto_symex::guard?0!0&0#19| (_ BitVec 1))

(declare-const |goto_symex::guard?0!0&0#20| (_ BitVec 1))

(declare-const |goto_symex::guard?0!0&0#21| (_ BitVec 1))

(declare-const |goto_symex::guard?0!0&0#22| (_ BitVec 1))

(declare-const |goto_symex::guard?0!0&0#23| (_ BitVec 1))

(declare-const |goto_symex::guard?0!0&0#24| (_ BitVec 1))

(declare-const |goto_symex::guard?0!0&0#25| (_ BitVec 1))

(declare-const |goto_symex::guard?0!0&0#26| (_ BitVec 1))

(declare-const |goto_symex::guard?0!0&0#27| (_ BitVec 1))

(declare-const |goto_symex::guard?0!0&0#28| (_ BitVec 1))

(declare-const |goto_symex::guard?0!0&0#29| (_ BitVec 1))

(declare-const |goto_symex::guard?0!0&0#30| (_ BitVec 1))

(declare-const |goto_symex::guard?0!0&0#31| (_ BitVec 1))

(declare-const |goto_symex::guard?0!0&0#32| (_ BitVec 1))

(declare-const |goto_symex::guard?0!0&0#33| (_ BitVec 1))

(declare-const |execution_statet::guard_exec?0!0| (_ BitVec 1))

(declare-const |c:stroeder1-alloca-1.i@22072@F@sumOfThirdBytes@array_size?1!0&0#1| (_ BitVec 32))

(declare-const |goto_symex::guard?0!0&0#34| (_ BitVec 1))

(declare-const |goto_symex::guard?0!0&0#35| (_ BitVec 1))

(declare-const |goto_symex::guard?0!0&0#36| (_ BitVec 1))

(declare-const |goto_symex::guard?0!0&0#37| (_ BitVec 1))

(declare-const |goto_symex::guard?0!0&0#38| (_ BitVec 1))

(declare-const |goto_symex::guard?0!0&0#39| (_ BitVec 1))

(declare-const |goto_symex::guard?0!0&0#40| (_ BitVec 1))

(declare-const |goto_symex::guard?0!0&0#41| (_ BitVec 1))

(declare-const |goto_symex::guard?0!0&0#42| (_ BitVec 1))

(declare-const |goto_symex::guard?0!0&0#43| (_ BitVec 1))

(declare-const |goto_symex::guard?0!0&0#44| (_ BitVec 1))

(declare-const |goto_symex::guard?0!0&0#45| (_ BitVec 1))

(declare-const |goto_symex::guard?0!0&0#46| (_ BitVec 1))

(declare-const |goto_symex::guard?0!0&0#47| (_ BitVec 1))

(declare-const |goto_symex::guard?0!0&0#48| (_ BitVec 1))

(declare-const |goto_symex::guard?0!0&0#49| (_ BitVec 1))

(declare-const |goto_symex::guard?0!0&0#50| (_ BitVec 1))

(declare-const |goto_symex::guard?0!0&0#51| (_ BitVec 1))

(declare-const |goto_symex::guard?0!0&0#52| (_ BitVec 1))

(declare-const |goto_symex::guard?0!0&0#53| (_ BitVec 1))

(declare-const |goto_symex::guard?0!0&0#54| (_ BitVec 1))

(declare-const |goto_symex::guard?0!0&0#55| (_ BitVec 1))

(declare-const |goto_symex::guard?0!0&0#56| (_ BitVec 1))

(declare-const |goto_symex::guard?0!0&0#57| (_ BitVec 1))

(declare-const |goto_symex::guard?0!0&0#58| (_ BitVec 1))

(declare-const |goto_symex::guard?0!0&0#59| (_ BitVec 1))

(declare-const |goto_symex::guard?0!0&0#60| (_ BitVec 1))

(declare-const |goto_symex::guard?0!0&0#61| (_ BitVec 1))

(declare-const |goto_symex::guard?0!0&0#62| (_ BitVec 1))

(declare-const |goto_symex::guard?0!0&0#63| (_ BitVec 1))

(declare-const |goto_symex::guard?0!0&0#64| (_ BitVec 1))

(declare-const |goto_symex::guard?0!0&0#65| (_ BitVec 1))

(assert 

 (= __ESBMC_ptr_obj_start_0 #b0000000000000000000000000000000000000000000000000000000000000000))

(assert 

 (= #b0000000000000000000000000000000000000000000000000000000000000000 __ESBMC_ptr_obj_end_0))

(assert 

 (= __ESBMC_ptr_obj_start_1 #b0000000000000000000000000000000000000000000000000000000000000001))

(assert 

 (= #b1111111111111111111111111111111111111111111111111111111111111111 __ESBMC_ptr_obj_end_1))

(assert 

 (= __ESBMC_ptr_obj_end_0 |smt_conv::__ESBMC_ptr_addr_range_0..end0|))

(assert 

 (= __ESBMC_ptr_obj_start_0 |smt_conv::__ESBMC_ptr_addr_range_0..start0|))

(assert 

 (= __ESBMC_ptr_obj_end_1 |smt_conv::__ESBMC_ptr_addr_range_1..end0|))

(assert 

 (= __ESBMC_ptr_obj_start_1 |smt_conv::__ESBMC_ptr_addr_range_1..start0|))

(assert 

 (= |smt_conv::smt_conv::collate_array_vals::3..end0| |smt_conv::smt_conv::collate_array_vals::4..end0|))

(assert 

 (= |smt_conv::smt_conv::collate_array_vals::3..start0| |smt_conv::smt_conv::collate_array_vals::4..start0|))

(assert 

 (= __ESBMC_ptr_obj_end_0 |smt_conv::smt_conv::collate_array_vals::7..end0|))

(assert 

 (= __ESBMC_ptr_obj_start_0 |smt_conv::smt_conv::collate_array_vals::7..start0|))

(assert 

 (= |c:@F@main::$tmp::return_value$___VERIFIER_nondet_int$1?1!0&0#1| |nondet$symex::nondet558|))

(assert 

 (= |c:@F@main::$tmp::return_value$___VERIFIER_nondet_int$1?1!0&0#1| |c:stroeder1-alloca-1.i@22280@F@main@array_size?1!0&0#1|))

(assert 

 (= |goto_symex::guard?0!0&0#1| 

  (bvnot 

   (ite 

    (and 

     (bvult 

      (concat 

       (ite 

        (= #b1 

         ((_ extract 31 31) |c:stroeder1-alloca-1.i@22280@F@main@array_size?1!0&0#1|)) #b11111111111111111111111111111111 #b00000000000000000000000000000000) |c:stroeder1-alloca-1.i@22280@F@main@array_size?1!0&0#1|) #b0000000000000000000000000000000000011111111111111111111111111111) 

     (not 

      (bvslt |c:stroeder1-alloca-1.i@22280@F@main@array_size?1!0&0#1| #b00000000000000000000000000000001))) #b1 #b0))))

(assert 

 (= |c:stroeder1-alloca-1.i@22280@F@main@array_size?1!0&0#3| 

  (ite 

   (= #b1 |goto_symex::guard?0!0&0#1|) #b00000000000000000000000000000001 |c:stroeder1-alloca-1.i@22280@F@main@array_size?1!0&0#1|)))

(assert 

 (= |goto_symex::guard?0!0&0#2| 

  (ite 

   (bvslt #b00000000000000000000000000000000 |c:stroeder1-alloca-1.i@22280@F@main@array_size?1!0&0#3|) #b1 #b0)))

(assert 

 (= |goto_symex::guard?0!0&0#3| 

  (ite 

   (bvslt #b00000000000000000000000000000001 |c:stroeder1-alloca-1.i@22280@F@main@array_size?1!0&0#3|) #b1 #b0)))

(assert 

 (= |goto_symex::guard?0!0&0#4| 

  (ite 

   (bvslt #b00000000000000000000000000000010 |c:stroeder1-alloca-1.i@22280@F@main@array_size?1!0&0#3|) #b1 #b0)))

(assert 

 (= |goto_symex::guard?0!0&0#5| 

  (ite 

   (bvslt #b00000000000000000000000000000011 |c:stroeder1-alloca-1.i@22280@F@main@array_size?1!0&0#3|) #b1 #b0)))

(assert 

 (= |goto_symex::guard?0!0&0#6| 

  (ite 

   (bvslt #b00000000000000000000000000000100 |c:stroeder1-alloca-1.i@22280@F@main@array_size?1!0&0#3|) #b1 #b0)))

(assert 

 (= |goto_symex::guard?0!0&0#7| 

  (ite 

   (bvslt #b00000000000000000000000000000101 |c:stroeder1-alloca-1.i@22280@F@main@array_size?1!0&0#3|) #b1 #b0)))

(assert 

 (= |goto_symex::guard?0!0&0#8| 

  (ite 

   (bvslt #b00000000000000000000000000000110 |c:stroeder1-alloca-1.i@22280@F@main@array_size?1!0&0#3|) #b1 #b0)))

(assert 

 (= |goto_symex::guard?0!0&0#9| 

  (ite 

   (bvslt #b00000000000000000000000000000111 |c:stroeder1-alloca-1.i@22280@F@main@array_size?1!0&0#3|) #b1 #b0)))

(assert 

 (= |goto_symex::guard?0!0&0#10| 

  (ite 

   (bvslt #b00000000000000000000000000001000 |c:stroeder1-alloca-1.i@22280@F@main@array_size?1!0&0#3|) #b1 #b0)))

(assert 

 (= |goto_symex::guard?0!0&0#11| 

  (ite 

   (bvslt #b00000000000000000000000000001001 |c:stroeder1-alloca-1.i@22280@F@main@array_size?1!0&0#3|) #b1 #b0)))

(assert 

 (= |goto_symex::guard?0!0&0#12| 

  (ite 

   (bvslt #b00000000000000000000000000001010 |c:stroeder1-alloca-1.i@22280@F@main@array_size?1!0&0#3|) #b1 #b0)))

(assert 

 (= |goto_symex::guard?0!0&0#13| 

  (ite 

   (bvslt #b00000000000000000000000000001011 |c:stroeder1-alloca-1.i@22280@F@main@array_size?1!0&0#3|) #b1 #b0)))

(assert 

 (= |goto_symex::guard?0!0&0#14| 

  (ite 

   (bvslt #b00000000000000000000000000001100 |c:stroeder1-alloca-1.i@22280@F@main@array_size?1!0&0#3|) #b1 #b0)))

(assert 

 (= |goto_symex::guard?0!0&0#15| 

  (ite 

   (bvslt #b00000000000000000000000000001101 |c:stroeder1-alloca-1.i@22280@F@main@array_size?1!0&0#3|) #b1 #b0)))

(assert 

 (= |goto_symex::guard?0!0&0#16| 

  (ite 

   (bvslt #b00000000000000000000000000001110 |c:stroeder1-alloca-1.i@22280@F@main@array_size?1!0&0#3|) #b1 #b0)))

(assert 

 (= |goto_symex::guard?0!0&0#17| 

  (ite 

   (bvslt #b00000000000000000000000000001111 |c:stroeder1-alloca-1.i@22280@F@main@array_size?1!0&0#3|) #b1 #b0)))

(assert 

 (= |goto_symex::guard?0!0&0#18| 

  (ite 

   (bvslt #b00000000000000000000000000010000 |c:stroeder1-alloca-1.i@22280@F@main@array_size?1!0&0#3|) #b1 #b0)))

(assert 

 (= |goto_symex::guard?0!0&0#19| 

  (ite 

   (bvslt #b00000000000000000000000000010001 |c:stroeder1-alloca-1.i@22280@F@main@array_size?1!0&0#3|) #b1 #b0)))

(assert 

 (= |goto_symex::guard?0!0&0#20| 

  (ite 

   (bvslt #b00000000000000000000000000010010 |c:stroeder1-alloca-1.i@22280@F@main@array_size?1!0&0#3|) #b1 #b0)))

(assert 

 (= |goto_symex::guard?0!0&0#21| 

  (ite 

   (bvslt #b00000000000000000000000000010011 |c:stroeder1-alloca-1.i@22280@F@main@array_size?1!0&0#3|) #b1 #b0)))

(assert 

 (= |goto_symex::guard?0!0&0#22| 

  (ite 

   (bvslt #b00000000000000000000000000010100 |c:stroeder1-alloca-1.i@22280@F@main@array_size?1!0&0#3|) #b1 #b0)))

(assert 

 (= |goto_symex::guard?0!0&0#23| 

  (ite 

   (bvslt #b00000000000000000000000000010101 |c:stroeder1-alloca-1.i@22280@F@main@array_size?1!0&0#3|) #b1 #b0)))

(assert 

 (= |goto_symex::guard?0!0&0#24| 

  (ite 

   (bvslt #b00000000000000000000000000010110 |c:stroeder1-alloca-1.i@22280@F@main@array_size?1!0&0#3|) #b1 #b0)))

(assert 

 (= |goto_symex::guard?0!0&0#25| 

  (ite 

   (bvslt #b00000000000000000000000000010111 |c:stroeder1-alloca-1.i@22280@F@main@array_size?1!0&0#3|) #b1 #b0)))

(assert 

 (= |goto_symex::guard?0!0&0#26| 

  (ite 

   (bvslt #b00000000000000000000000000011000 |c:stroeder1-alloca-1.i@22280@F@main@array_size?1!0&0#3|) #b1 #b0)))

(assert 

 (= |goto_symex::guard?0!0&0#27| 

  (ite 

   (bvslt #b00000000000000000000000000011001 |c:stroeder1-alloca-1.i@22280@F@main@array_size?1!0&0#3|) #b1 #b0)))

(assert 

 (= |goto_symex::guard?0!0&0#28| 

  (ite 

   (bvslt #b00000000000000000000000000011010 |c:stroeder1-alloca-1.i@22280@F@main@array_size?1!0&0#3|) #b1 #b0)))

(assert 

 (= |goto_symex::guard?0!0&0#29| 

  (ite 

   (bvslt #b00000000000000000000000000011011 |c:stroeder1-alloca-1.i@22280@F@main@array_size?1!0&0#3|) #b1 #b0)))

(assert 

 (= |goto_symex::guard?0!0&0#30| 

  (ite 

   (bvslt #b00000000000000000000000000011100 |c:stroeder1-alloca-1.i@22280@F@main@array_size?1!0&0#3|) #b1 #b0)))

(assert 

 (= |goto_symex::guard?0!0&0#31| 

  (ite 

   (bvslt #b00000000000000000000000000011101 |c:stroeder1-alloca-1.i@22280@F@main@array_size?1!0&0#3|) #b1 #b0)))

(assert 

 (= |goto_symex::guard?0!0&0#32| 

  (ite 

   (bvslt #b00000000000000000000000000011110 |c:stroeder1-alloca-1.i@22280@F@main@array_size?1!0&0#3|) #b1 #b0)))

(assert 

 (= |goto_symex::guard?0!0&0#33| 

  (ite 

   (bvslt #b00000000000000000000000000011111 |c:stroeder1-alloca-1.i@22280@F@main@array_size?1!0&0#3|) #b1 #b0)))

(assert 

 (= |c:stroeder1-alloca-1.i@22280@F@main@array_size?1!0&0#3| |c:stroeder1-alloca-1.i@22072@F@sumOfThirdBytes@array_size?1!0&0#1|))

(assert 

 (= |goto_symex::guard?0!0&0#34| 

  (ite 

   (bvslt #b00000000000000000000000000000000 |c:stroeder1-alloca-1.i@22072@F@sumOfThirdBytes@array_size?1!0&0#1|) #b1 #b0)))

(assert 

 (= |goto_symex::guard?0!0&0#35| 

  (ite 

   (bvslt #b00000000000000000000000000000001 |c:stroeder1-alloca-1.i@22072@F@sumOfThirdBytes@array_size?1!0&0#1|) #b1 #b0)))

(assert 

 (= |goto_symex::guard?0!0&0#36| 

  (ite 

   (bvslt #b00000000000000000000000000000010 |c:stroeder1-alloca-1.i@22072@F@sumOfThirdBytes@array_size?1!0&0#1|) #b1 #b0)))

(assert 

 (= |goto_symex::guard?0!0&0#37| 

  (ite 

   (bvslt #b00000000000000000000000000000011 |c:stroeder1-alloca-1.i@22072@F@sumOfThirdBytes@array_size?1!0&0#1|) #b1 #b0)))

(assert 

 (= |goto_symex::guard?0!0&0#38| 

  (ite 

   (bvslt #b00000000000000000000000000000100 |c:stroeder1-alloca-1.i@22072@F@sumOfThirdBytes@array_size?1!0&0#1|) #b1 #b0)))

(assert 

 (= |goto_symex::guard?0!0&0#39| 

  (ite 

   (bvslt #b00000000000000000000000000000101 |c:stroeder1-alloca-1.i@22072@F@sumOfThirdBytes@array_size?1!0&0#1|) #b1 #b0)))

(assert 

 (= |goto_symex::guard?0!0&0#40| 

  (ite 

   (bvslt #b00000000000000000000000000000110 |c:stroeder1-alloca-1.i@22072@F@sumOfThirdBytes@array_size?1!0&0#1|) #b1 #b0)))

(assert 

 (= |goto_symex::guard?0!0&0#41| 

  (ite 

   (bvslt #b00000000000000000000000000000111 |c:stroeder1-alloca-1.i@22072@F@sumOfThirdBytes@array_size?1!0&0#1|) #b1 #b0)))

(assert 

 (= |goto_symex::guard?0!0&0#42| 

  (ite 

   (bvslt #b00000000000000000000000000001000 |c:stroeder1-alloca-1.i@22072@F@sumOfThirdBytes@array_size?1!0&0#1|) #b1 #b0)))

(assert 

 (= |goto_symex::guard?0!0&0#43| 

  (ite 

   (bvslt #b00000000000000000000000000001001 |c:stroeder1-alloca-1.i@22072@F@sumOfThirdBytes@array_size?1!0&0#1|) #b1 #b0)))

(assert 

 (= |goto_symex::guard?0!0&0#44| 

  (ite 

   (bvslt #b00000000000000000000000000001010 |c:stroeder1-alloca-1.i@22072@F@sumOfThirdBytes@array_size?1!0&0#1|) #b1 #b0)))

(assert 

 (= |goto_symex::guard?0!0&0#45| 

  (ite 

   (bvslt #b00000000000000000000000000001011 |c:stroeder1-alloca-1.i@22072@F@sumOfThirdBytes@array_size?1!0&0#1|) #b1 #b0)))

(assert 

 (= |goto_symex::guard?0!0&0#46| 

  (ite 

   (bvslt #b00000000000000000000000000001100 |c:stroeder1-alloca-1.i@22072@F@sumOfThirdBytes@array_size?1!0&0#1|) #b1 #b0)))

(assert 

 (= |goto_symex::guard?0!0&0#47| 

  (ite 

   (bvslt #b00000000000000000000000000001101 |c:stroeder1-alloca-1.i@22072@F@sumOfThirdBytes@array_size?1!0&0#1|) #b1 #b0)))

(assert 

 (= |goto_symex::guard?0!0&0#48| 

  (ite 

   (bvslt #b00000000000000000000000000001110 |c:stroeder1-alloca-1.i@22072@F@sumOfThirdBytes@array_size?1!0&0#1|) #b1 #b0)))

(assert 

 (= |goto_symex::guard?0!0&0#49| 

  (ite 

   (bvslt #b00000000000000000000000000001111 |c:stroeder1-alloca-1.i@22072@F@sumOfThirdBytes@array_size?1!0&0#1|) #b1 #b0)))

(assert 

 (= |goto_symex::guard?0!0&0#50| 

  (ite 

   (bvslt #b00000000000000000000000000010000 |c:stroeder1-alloca-1.i@22072@F@sumOfThirdBytes@array_size?1!0&0#1|) #b1 #b0)))

(assert 

 (= |goto_symex::guard?0!0&0#51| 

  (ite 

   (bvslt #b00000000000000000000000000010001 |c:stroeder1-alloca-1.i@22072@F@sumOfThirdBytes@array_size?1!0&0#1|) #b1 #b0)))

(assert 

 (= |goto_symex::guard?0!0&0#52| 

  (ite 

   (bvslt #b00000000000000000000000000010010 |c:stroeder1-alloca-1.i@22072@F@sumOfThirdBytes@array_size?1!0&0#1|) #b1 #b0)))

(assert 

 (= |goto_symex::guard?0!0&0#53| 

  (ite 

   (bvslt #b00000000000000000000000000010011 |c:stroeder1-alloca-1.i@22072@F@sumOfThirdBytes@array_size?1!0&0#1|) #b1 #b0)))

(assert 

 (= |goto_symex::guard?0!0&0#54| 

  (ite 

   (bvslt #b00000000000000000000000000010100 |c:stroeder1-alloca-1.i@22072@F@sumOfThirdBytes@array_size?1!0&0#1|) #b1 #b0)))

(assert 

 (= |goto_symex::guard?0!0&0#55| 

  (ite 

   (bvslt #b00000000000000000000000000010101 |c:stroeder1-alloca-1.i@22072@F@sumOfThirdBytes@array_size?1!0&0#1|) #b1 #b0)))

(assert 

 (= |goto_symex::guard?0!0&0#56| 

  (ite 

   (bvslt #b00000000000000000000000000010110 |c:stroeder1-alloca-1.i@22072@F@sumOfThirdBytes@array_size?1!0&0#1|) #b1 #b0)))

(assert 

 (= |goto_symex::guard?0!0&0#57| 

  (ite 

   (bvslt #b00000000000000000000000000010111 |c:stroeder1-alloca-1.i@22072@F@sumOfThirdBytes@array_size?1!0&0#1|) #b1 #b0)))

(assert 

 (= |goto_symex::guard?0!0&0#58| 

  (ite 

   (bvslt #b00000000000000000000000000011000 |c:stroeder1-alloca-1.i@22072@F@sumOfThirdBytes@array_size?1!0&0#1|) #b1 #b0)))

(assert 

 (= |goto_symex::guard?0!0&0#59| 

  (ite 

   (bvslt #b00000000000000000000000000011001 |c:stroeder1-alloca-1.i@22072@F@sumOfThirdBytes@array_size?1!0&0#1|) #b1 #b0)))

(assert 

 (= |goto_symex::guard?0!0&0#60| 

  (ite 

   (bvslt #b00000000000000000000000000011010 |c:stroeder1-alloca-1.i@22072@F@sumOfThirdBytes@array_size?1!0&0#1|) #b1 #b0)))

(assert 

 (= |goto_symex::guard?0!0&0#61| 

  (ite 

   (bvslt #b00000000000000000000000000011011 |c:stroeder1-alloca-1.i@22072@F@sumOfThirdBytes@array_size?1!0&0#1|) #b1 #b0)))

(assert 

 (= |goto_symex::guard?0!0&0#62| 

  (ite 

   (bvslt #b00000000000000000000000000011100 |c:stroeder1-alloca-1.i@22072@F@sumOfThirdBytes@array_size?1!0&0#1|) #b1 #b0)))

(assert 

 (= |goto_symex::guard?0!0&0#63| 

  (ite 

   (bvslt #b00000000000000000000000000011101 |c:stroeder1-alloca-1.i@22072@F@sumOfThirdBytes@array_size?1!0&0#1|) #b1 #b0)))

(assert 

 (= |goto_symex::guard?0!0&0#64| 

  (ite 

   (bvslt #b00000000000000000000000000011110 |c:stroeder1-alloca-1.i@22072@F@sumOfThirdBytes@array_size?1!0&0#1|) #b1 #b0)))

(assert 

 (= |goto_symex::guard?0!0&0#65| 

  (ite 

   (bvslt #b00000000000000000000000000011111 |c:stroeder1-alloca-1.i@22072@F@sumOfThirdBytes@array_size?1!0&0#1|) #b1 #b0)))

(assert (= 

 (bvnot 

  (bvand 

   (bvnot 

    (bvand 

     (bvand |goto_symex::guard?0!0&0#33| 

      (bvand |goto_symex::guard?0!0&0#32| 

       (bvand |goto_symex::guard?0!0&0#31| 

        (bvand |goto_symex::guard?0!0&0#30| 

         (bvand |goto_symex::guard?0!0&0#29| 

          (bvand |goto_symex::guard?0!0&0#28| 

           (bvand |goto_symex::guard?0!0&0#27| 

            (bvand |goto_symex::guard?0!0&0#26| 

             (bvand |goto_symex::guard?0!0&0#25| 

              (bvand |goto_symex::guard?0!0&0#24| 

               (bvand |goto_symex::guard?0!0&0#23| 

                (bvand |goto_symex::guard?0!0&0#22| 

                 (bvand |goto_symex::guard?0!0&0#21| 

                  (bvand |goto_symex::guard?0!0&0#20| 

                   (bvand |goto_symex::guard?0!0&0#19| 

                    (bvand |goto_symex::guard?0!0&0#18| 

                     (bvand |goto_symex::guard?0!0&0#17| 

                      (bvand |goto_symex::guard?0!0&0#16| 

                       (bvand |goto_symex::guard?0!0&0#15| 

                        (bvand |goto_symex::guard?0!0&0#14| 

                         (bvand |goto_symex::guard?0!0&0#13| 

                          (bvand |goto_symex::guard?0!0&0#12| 

                           (bvand |goto_symex::guard?0!0&0#11| 

                            (bvand |goto_symex::guard?0!0&0#10| 

                             (bvand |goto_symex::guard?0!0&0#9| 

                              (bvand |goto_symex::guard?0!0&0#8| 

                               (bvand |goto_symex::guard?0!0&0#7| 

                                (bvand |goto_symex::guard?0!0&0#6| 

                                 (bvand |goto_symex::guard?0!0&0#5| 

                                  (bvand |goto_symex::guard?0!0&0#4| 

                                   (bvand |goto_symex::guard?0!0&0#2| |goto_symex::guard?0!0&0#3|))))))))))))))))))))))))))))))) |execution_statet::guard_exec?0!0|)) 

   (bvnot 

    (bvand |execution_statet::guard_exec?0!0| 

     (bvand |goto_symex::guard?0!0&0#65| 

      (bvand |goto_symex::guard?0!0&0#64| 

       (bvand |goto_symex::guard?0!0&0#63| 

        (bvand |goto_symex::guard?0!0&0#62| 

         (bvand |goto_symex::guard?0!0&0#61| 

          (bvand |goto_symex::guard?0!0&0#60| 

           (bvand |goto_symex::guard?0!0&0#59| 

            (bvand |goto_symex::guard?0!0&0#58| 

             (bvand |goto_symex::guard?0!0&0#57| 

              (bvand |goto_symex::guard?0!0&0#56| 

               (bvand |goto_symex::guard?0!0&0#55| 

                (bvand |goto_symex::guard?0!0&0#54| 

                 (bvand |goto_symex::guard?0!0&0#53| 

                  (bvand |goto_symex::guard?0!0&0#52| 

                   (bvand |goto_symex::guard?0!0&0#51| 

                    (bvand |goto_symex::guard?0!0&0#50| 

                     (bvand |goto_symex::guard?0!0&0#49| 

                      (bvand |goto_symex::guard?0!0&0#48| 

                       (bvand |goto_symex::guard?0!0&0#47| 

                        (bvand |goto_symex::guard?0!0&0#46| 

                         (bvand |goto_symex::guard?0!0&0#45| 

                          (bvand |goto_symex::guard?0!0&0#44| 

                           (bvand |goto_symex::guard?0!0&0#43| 

                            (bvand |goto_symex::guard?0!0&0#42| 

                             (bvand |goto_symex::guard?0!0&0#41| 

                              (bvand |goto_symex::guard?0!0&0#40| 

                               (bvand |goto_symex::guard?0!0&0#39| 

                                (bvand |goto_symex::guard?0!0&0#38| 

                                 (bvand |goto_symex::guard?0!0&0#37| 

                                  (bvand |goto_symex::guard?0!0&0#36| 

                                   (bvand |goto_symex::guard?0!0&0#35| 

                                    (bvand 

                                     (bvnot 

                                      (bvand |goto_symex::guard?0!0&0#2| 

                                       (bvand |goto_symex::guard?0!0&0#3| 

                                        (bvand |goto_symex::guard?0!0&0#4| 

                                         (bvand |goto_symex::guard?0!0&0#5| 

                                          (bvand |goto_symex::guard?0!0&0#6| 

                                           (bvand |goto_symex::guard?0!0&0#7| 

                                            (bvand |goto_symex::guard?0!0&0#8| 

                                             (bvand |goto_symex::guard?0!0&0#9| 

                                              (bvand |goto_symex::guard?0!0&0#10| 

                                               (bvand |goto_symex::guard?0!0&0#11| 

                                                (bvand |goto_symex::guard?0!0&0#12| 

                                                 (bvand |goto_symex::guard?0!0&0#13| 

                                                  (bvand |goto_symex::guard?0!0&0#14| 

                                                   (bvand |goto_symex::guard?0!0&0#15| 

                                                    (bvand |goto_symex::guard?0!0&0#16| 

                                                     (bvand |goto_symex::guard?0!0&0#17| 

                                                      (bvand |goto_symex::guard?0!0&0#18| 

                                                       (bvand |goto_symex::guard?0!0&0#19| 

                                                        (bvand |goto_symex::guard?0!0&0#20| 

                                                         (bvand |goto_symex::guard?0!0&0#21| 

                                                          (bvand |goto_symex::guard?0!0&0#22| 

                                                           (bvand |goto_symex::guard?0!0&0#23| 

                                                            (bvand |goto_symex::guard?0!0&0#24| 

                                                             (bvand |goto_symex::guard?0!0&0#25| 

                                                              (bvand |goto_symex::guard?0!0&0#26| 

                                                               (bvand |goto_symex::guard?0!0&0#27| 

                                                                (bvand |goto_symex::guard?0!0&0#28| 

                                                                 (bvand |goto_symex::guard?0!0&0#29| 

                                                                  (bvand |goto_symex::guard?0!0&0#30| 

                                                                   (bvand |goto_symex::guard?0!0&0#31| 

                                                                    (bvand |goto_symex::guard?0!0&0#32| |goto_symex::guard?0!0&0#33|)))))))))))))))))))))))))))))))) |goto_symex::guard?0!0&0#34|)))))))))))))))))))))))))))))))))))) #b1))

(check-sat)

(exit)
